c "319030.clq"
p edge 100 1344
e 1 17
e 1 18
e 1 19
e 1 20
e 1 21
e 1 22
e 1 28
e 1 38
e 1 43
e 1 46
e 1 52
e 1 53
e 1 66
e 1 67
e 1 79
e 1 82
e 1 86
e 1 91
e 1 92
e 1 100
e 2 17
e 2 18
e 2 19
e 2 20
e 2 21
e 2 22
e 2 23
e 2 25
e 2 26
e 2 27
e 2 29
e 2 34
e 2 36
e 2 38
e 2 40
e 2 42
e 2 43
e 2 52
e 2 53
e 2 62
e 2 65
e 2 66
e 2 73
e 2 78
e 2 83
e 2 84
e 2 85
e 2 87
e 2 90
e 2 96
e 2 100
e 3 17
e 3 18
e 3 19
e 3 20
e 3 23
e 3 24
e 3 29
e 3 30
e 3 31
e 3 32
e 3 33
e 3 36
e 3 38
e 3 47
e 3 51
e 3 56
e 3 57
e 3 58
e 3 59
e 3 63
e 3 64
e 3 65
e 3 67
e 3 74
e 3 75
e 3 77
e 3 80
e 4 17
e 4 18
e 4 19
e 4 20
e 4 21
e 4 24
e 4 25
e 4 27
e 4 28
e 4 29
e 4 31
e 4 33
e 4 34
e 4 35
e 4 37
e 4 50
e 4 58
e 4 60
e 4 63
e 4 87
e 4 88
e 4 90
e 4 94
e 5 17
e 5 18
e 5 19
e 5 22
e 5 23
e 5 24
e 5 25
e 5 27
e 5 36
e 5 39
e 5 40
e 5 43
e 5 46
e 5 48
e 5 58
e 5 62
e 5 64
e 5 66
e 5 68
e 5 69
e 5 75
e 5 76
e 5 81
e 5 83
e 5 85
e 5 86
e 5 87
e 5 91
e 5 94
e 5 95
e 5 97
e 5 98
e 5 100
e 6 17
e 6 18
e 6 19
e 6 20
e 6 22
e 6 23
e 6 25
e 6 26
e 6 29
e 6 30
e 6 31
e 6 34
e 6 36
e 6 37
e 6 42
e 6 50
e 6 56
e 6 57
e 6 63
e 6 65
e 6 71
e 6 75
e 6 77
e 6 78
e 6 81
e 6 84
e 6 88
e 6 93
e 6 96
e 6 98
e 7 17
e 7 19
e 7 20
e 7 21
e 7 22
e 7 23
e 7 25
e 7 43
e 7 69
e 7 75
e 7 98
e 7 100
e 8 17
e 8 18
e 8 19
e 8 21
e 8 23
e 8 25
e 8 26
e 8 27
e 8 28
e 8 30
e 8 33
e 8 34
e 8 37
e 8 43
e 8 47
e 8 54
e 8 60
e 8 63
e 8 68
e 8 70
e 8 71
e 8 72
e 8 74
e 8 76
e 8 81
e 8 85
e 8 89
e 8 98
e 8 99
e 9 17
e 9 18
e 9 19
e 9 20
e 9 21
e 9 22
e 9 23
e 9 24
e 9 25
e 9 27
e 9 28
e 9 30
e 9 31
e 9 32
e 9 35
e 9 37
e 9 39
e 9 40
e 9 50
e 9 52
e 9 57
e 9 59
e 9 62
e 9 68
e 9 75
e 9 78
e 9 86
e 9 96
e 10 17
e 10 18
e 10 19
e 10 20
e 10 21
e 10 22
e 10 24
e 10 26
e 10 27
e 10 28
e 10 29
e 10 30
e 10 32
e 10 33
e 10 35
e 10 36
e 10 41
e 10 45
e 10 51
e 10 56
e 10 61
e 10 63
e 10 64
e 10 66
e 10 69
e 10 70
e 10 71
e 10 77
e 10 78
e 10 81
e 10 95
e 10 96
e 10 98
e 11 17
e 11 18
e 11 20
e 11 21
e 11 22
e 11 24
e 11 26
e 11 28
e 11 29
e 11 32
e 11 36
e 11 38
e 11 39
e 11 44
e 11 45
e 11 47
e 11 49
e 11 51
e 11 54
e 11 56
e 11 59
e 11 62
e 11 64
e 11 67
e 11 71
e 11 72
e 11 77
e 11 81
e 11 99
e 12 17
e 12 18
e 12 19
e 12 20
e 12 22
e 12 23
e 12 24
e 12 25
e 12 26
e 12 27
e 12 29
e 12 30
e 12 36
e 12 41
e 12 42
e 12 44
e 12 51
e 12 55
e 12 57
e 12 60
e 12 70
e 12 74
e 12 78
e 12 79
e 12 80
e 12 85
e 12 99
e 13 17
e 13 18
e 13 19
e 13 21
e 13 22
e 13 24
e 13 25
e 13 30
e 13 32
e 13 33
e 13 34
e 13 40
e 13 41
e 13 45
e 13 64
e 13 72
e 13 78
e 13 89
e 13 93
e 13 96
e 13 99
e 14 17
e 14 18
e 14 20
e 14 21
e 14 22
e 14 23
e 14 25
e 14 26
e 14 30
e 14 33
e 14 35
e 14 37
e 14 45
e 14 46
e 14 48
e 14 51
e 14 71
e 14 78
e 14 80
e 14 91
e 14 92
e 14 99
e 15 17
e 15 18
e 15 19
e 15 20
e 15 21
e 15 32
e 15 34
e 15 36
e 15 37
e 15 41
e 15 48
e 15 50
e 15 52
e 15 63
e 15 64
e 15 73
e 15 79
e 15 80
e 15 84
e 16 17
e 16 18
e 16 19
e 16 20
e 16 21
e 16 23
e 16 24
e 16 26
e 16 27
e 16 29
e 16 32
e 16 33
e 16 39
e 16 40
e 16 46
e 16 52
e 16 81
e 16 82
e 16 85
e 16 87
e 16 93
e 16 98
e 17 18
e 17 19
e 17 20
e 17 21
e 17 22
e 17 23
e 17 24
e 17 25
e 17 26
e 17 27
e 17 28
e 17 29
e 17 30
e 17 31
e 17 32
e 17 33
e 17 34
e 17 35
e 17 36
e 17 41
e 17 42
e 17 43
e 17 45
e 17 46
e 17 48
e 17 49
e 17 51
e 17 52
e 17 55
e 17 56
e 17 59
e 17 64
e 17 68
e 17 69
e 17 70
e 17 73
e 17 75
e 17 77
e 17 80
e 17 81
e 17 83
e 17 84
e 17 89
e 17 90
e 17 92
e 17 93
e 17 94
e 17 96
e 17 97
e 17 99
e 17 100
e 18 19
e 18 20
e 18 21
e 18 22
e 18 23
e 18 24
e 18 25
e 18 26
e 18 27
e 18 28
e 18 29
e 18 30
e 18 31
e 18 33
e 18 34
e 18 35
e 18 36
e 18 38
e 18 39
e 18 40
e 18 41
e 18 42
e 18 44
e 18 47
e 18 48
e 18 49
e 18 50
e 18 53
e 18 55
e 18 57
e 18 58
e 18 59
e 18 60
e 18 61
e 18 64
e 18 65
e 18 68
e 18 69
e 18 70
e 18 72
e 18 74
e 18 75
e 18 78
e 18 80
e 18 82
e 18 84
e 18 85
e 18 87
e 18 89
e 18 90
e 18 92
e 18 96
e 19 20
e 19 21
e 19 22
e 19 23
e 19 24
e 19 26
e 19 27
e 19 28
e 19 29
e 19 30
e 19 31
e 19 32
e 19 37
e 19 40
e 19 43
e 19 44
e 19 47
e 19 52
e 19 54
e 19 60
e 19 61
e 19 66
e 19 67
e 19 68
e 19 70
e 19 73
e 19 74
e 19 80
e 19 81
e 19 82
e 19 85
e 19 86
e 19 98
e 20 21
e 20 22
e 20 23
e 20 24
e 20 25
e 20 26
e 20 27
e 20 28
e 20 29
e 20 30
e 20 31
e 20 32
e 20 35
e 20 37
e 20 38
e 20 39
e 20 41
e 20 42
e 20 44
e 20 46
e 20 47
e 20 48
e 20 51
e 20 52
e 20 54
e 20 56
e 20 58
e 20 60
e 20 61
e 20 67
e 20 73
e 20 74
e 20 76
e 20 86
e 20 89
e 20 90
e 20 100
e 21 22
e 21 23
e 21 24
e 21 25
e 21 26
e 21 28
e 21 29
e 21 31
e 21 34
e 21 35
e 21 37
e 21 39
e 21 40
e 21 41
e 21 42
e 21 44
e 21 46
e 21 51
e 21 52
e 21 57
e 21 60
e 21 61
e 21 67
e 21 69
e 21 72
e 21 82
e 21 86
e 21 93
e 22 23
e 22 24
e 22 25
e 22 26
e 22 27
e 22 28
e 22 29
e 22 30
e 22 31
e 22 33
e 22 35
e 22 36
e 22 38
e 22 40
e 22 41
e 22 42
e 22 45
e 22 46
e 22 48
e 22 49
e 22 51
e 22 52
e 22 53
e 22 56
e 22 57
e 22 69
e 22 70
e 22 72
e 22 73
e 22 74
e 22 75
e 22 76
e 22 77
e 22 80
e 22 82
e 22 86
e 22 87
e 22 95
e 22 98
e 23 24
e 23 25
e 23 26
e 23 28
e 23 30
e 23 32
e 23 33
e 23 34
e 23 35
e 23 37
e 23 39
e 23 40
e 23 41
e 23 43
e 23 44
e 23 45
e 23 48
e 23 49
e 23 51
e 23 52
e 23 53
e 23 54
e 23 55
e 23 56
e 23 57
e 23 58
e 23 59
e 23 60
e 23 62
e 23 65
e 23 66
e 23 67
e 23 69
e 23 73
e 23 77
e 23 81
e 23 87
e 23 90
e 23 91
e 23 94
e 23 97
e 23 99
e 24 27
e 24 28
e 24 29
e 24 30
e 24 31
e 24 33
e 24 34
e 24 36
e 24 38
e 24 39
e 24 41
e 24 42
e 24 44
e 24 50
e 24 51
e 24 54
e 24 58
e 24 59
e 24 61
e 24 65
e 24 66
e 24 68
e 24 70
e 24 71
e 24 74
e 24 83
e 24 85
e 24 88
e 24 91
e 25 26
e 25 27
e 25 28
e 25 30
e 25 31
e 25 32
e 25 33
e 25 34
e 25 35
e 25 36
e 25 37
e 25 38
e 25 40
e 25 42
e 25 45
e 25 49
e 25 50
e 25 51
e 25 53
e 25 58
e 25 61
e 25 62
e 25 70
e 25 71
e 25 72
e 25 73
e 25 78
e 25 79
e 25 82
e 25 83
e 25 85
e 25 89
e 26 27
e 26 28
e 26 35
e 26 36
e 26 38
e 26 39
e 26 42
e 26 43
e 26 45
e 26 47
e 26 57
e 26 58
e 26 65
e 26 67
e 26 69
e 26 72
e 26 78
e 26 80
e 26 86
e 26 94
e 26 95
e 26 97
e 27 31
e 27 32
e 27 33
e 27 34
e 27 35
e 27 37
e 27 38
e 27 39
e 27 40
e 27 44
e 27 46
e 27 50
e 27 51
e 27 53
e 27 55
e 27 60
e 27 63
e 27 64
e 27 70
e 27 73
e 27 76
e 27 82
e 27 85
e 27 91
e 27 95
e 28 29
e 28 31
e 28 32
e 28 33
e 28 34
e 28 35
e 28 37
e 28 38
e 28 39
e 28 40
e 28 42
e 28 43
e 28 49
e 28 53
e 28 54
e 28 58
e 28 59
e 28 60
e 28 62
e 28 63
e 28 64
e 28 68
e 28 71
e 28 73
e 28 75
e 28 76
e 28 78
e 28 81
e 28 84
e 28 85
e 28 87
e 28 94
e 28 95
e 29 31
e 29 32
e 29 35
e 29 39
e 29 42
e 29 43
e 29 47
e 29 49
e 29 53
e 29 57
e 29 63
e 29 65
e 29 67
e 29 75
e 29 77
e 29 88
e 29 90
e 29 93
e 29 94
e 29 98
e 30 31
e 30 32
e 30 34
e 30 35
e 30 37
e 30 38
e 30 41
e 30 43
e 30 45
e 30 46
e 30 48
e 30 49
e 30 52
e 30 55
e 30 58
e 30 59
e 30 61
e 30 65
e 30 66
e 30 71
e 30 76
e 30 80
e 30 89
e 30 91
e 30 92
e 31 38
e 31 43
e 31 44
e 31 47
e 31 50
e 31 51
e 31 53
e 31 55
e 31 56
e 31 59
e 31 60
e 31 61
e 31 70
e 31 73
e 31 74
e 31 76
e 31 82
e 31 88
e 31 89
e 31 90
e 32 33
e 32 36
e 32 39
e 32 40
e 32 42
e 32 46
e 32 47
e 32 48
e 32 49
e 32 53
e 32 55
e 32 56
e 32 58
e 32 59
e 32 62
e 32 66
e 32 67
e 32 72
e 32 80
e 32 82
e 32 86
e 32 88
e 32 90
e 32 91
e 32 99
e 33 34
e 33 36
e 33 38
e 33 44
e 33 45
e 33 48
e 33 49
e 33 56
e 33 59
e 33 61
e 33 63
e 33 68
e 33 72
e 33 84
e 33 87
e 34 37
e 34 39
e 34 41
e 34 44
e 34 46
e 34 47
e 34 50
e 34 57
e 34 60
e 34 61
e 34 65
e 34 66
e 34 68
e 34 69
e 34 72
e 34 74
e 34 78
e 34 81
e 34 82
e 34 83
e 34 86
e 34 88
e 34 94
e 34 97
e 35 37
e 35 39
e 35 40
e 35 41
e 35 50
e 35 58
e 35 60
e 35 65
e 35 66
e 35 72
e 35 74
e 35 76
e 35 79
e 35 80
e 35 84
e 35 89
e 35 91
e 35 94
e 35 100
e 36 38
e 36 41
e 36 42
e 36 43
e 36 44
e 36 45
e 36 49
e 36 53
e 36 58
e 36 63
e 36 73
e 36 74
e 36 88
e 36 97
e 37 44
e 37 46
e 37 47
e 37 49
e 37 50
e 37 53
e 37 57
e 37 71
e 37 75
e 37 82
e 37 89
e 37 90
e 37 93
e 37 94
e 37 99
e 38 42
e 38 43
e 38 48
e 38 50
e 38 55
e 38 62
e 38 63
e 38 66
e 38 67
e 38 71
e 38 73
e 38 77
e 38 81
e 38 87
e 38 88
e 38 95
e 39 40
e 39 41
e 39 45
e 39 47
e 39 54
e 39 55
e 39 57
e 39 62
e 39 67
e 39 71
e 39 74
e 39 79
e 39 89
e 39 90
e 39 93
e 40 44
e 40 45
e 40 56
e 40 58
e 40 61
e 40 66
e 40 80
e 40 83
e 40 96
e 41 43
e 41 45
e 41 46
e 41 47
e 41 52
e 41 54
e 41 57
e 41 59
e 41 61
e 41 62
e 41 68
e 41 73
e 41 79
e 41 84
e 41 88
e 41 95
e 41 97
e 42 47
e 42 50
e 42 52
e 42 53
e 42 54
e 42 59
e 42 60
e 42 62
e 42 66
e 42 70
e 42 71
e 42 72
e 42 73
e 42 74
e 42 76
e 42 78
e 42 79
e 42 80
e 42 89
e 42 91
e 42 94
e 43 44
e 43 46
e 43 48
e 43 54
e 43 61
e 43 74
e 43 81
e 43 98
e 44 45
e 44 46
e 44 48
e 44 54
e 44 57
e 44 60
e 44 66
e 44 88
e 44 94
e 44 96
e 45 47
e 45 48
e 45 52
e 45 55
e 45 61
e 45 70
e 45 79
e 45 94
e 45 97
e 46 49
e 46 51
e 46 54
e 46 55
e 46 56
e 46 59
e 46 63
e 46 65
e 46 69
e 46 75
e 46 83
e 46 89
e 46 91
e 47 48
e 47 49
e 47 51
e 47 53
e 47 54
e 47 55
e 47 56
e 47 64
e 47 67
e 47 68
e 47 70
e 47 72
e 47 77
e 47 92
e 47 97
e 47 100
e 48 49
e 48 50
e 48 55
e 48 58
e 48 62
e 48 72
e 48 79
e 48 95
e 48 98
e 49 50
e 49 53
e 49 56
e 49 57
e 49 62
e 49 83
e 49 85
e 49 86
e 49 87
e 49 99
e 50 52
e 50 56
e 50 63
e 50 65
e 50 69
e 50 76
e 50 84
e 50 85
e 50 90
e 50 92
e 50 95
e 50 96
e 51 54
e 51 62
e 51 66
e 51 69
e 51 75
e 51 84
e 51 87
e 51 88
e 51 90
e 51 97
e 51 100
e 52 67
e 52 68
e 52 69
e 52 77
e 52 90
e 52 91
e 52 93
e 53 54
e 53 55
e 53 68
e 53 80
e 53 92
e 53 93
e 53 95
e 53 97
e 53 99
e 54 55
e 54 91
e 55 69
e 55 78
e 55 79
e 55 92
e 55 96
e 56 63
e 56 64
e 56 68
e 56 73
e 56 75
e 56 76
e 56 91
e 56 93
e 57 60
e 57 62
e 57 67
e 57 70
e 57 83
e 57 87
e 57 89
e 57 96
e 58 59
e 58 61
e 58 64
e 58 77
e 58 81
e 58 91
e 58 93
e 58 96
e 58 100
e 59 64
e 59 72
e 59 82
e 59 84
e 59 86
e 59 89
e 59 92
e 60 63
e 60 65
e 60 67
e 60 70
e 60 76
e 60 77
e 60 86
e 60 88
e 60 98
e 60 99
e 60 100
e 61 64
e 61 65
e 61 78
e 61 83
e 61 97
e 62 64
e 62 90
e 62 92
e 62 99
e 63 65
e 63 79
e 63 92
e 63 97
e 64 69
e 64 76
e 64 77
e 64 79
e 64 90
e 64 95
e 65 79
e 65 81
e 66 71
e 66 83
e 66 84
e 66 93
e 67 68
e 67 76
e 67 85
e 67 95
e 68 83
e 68 84
e 68 92
e 68 93
e 68 96
e 69 71
e 69 77
e 69 80
e 69 83
e 69 84
e 69 85
e 69 100
e 70 71
e 70 74
e 70 79
e 71 82
e 71 88
e 71 92
e 72 76
e 73 75
e 73 82
e 73 86
e 73 87
e 73 92
e 74 75
e 74 77
e 74 83
e 74 84
e 74 89
e 74 99
e 75 78
e 75 81
e 75 82
e 75 85
e 76 79
e 76 86
e 76 93
e 76 96
e 76 97
e 76 98
e 77 87
e 77 92
e 77 98
e 78 99
e 79 88
e 79 98
e 80 86
e 80 88
e 80 97
e 82 83
e 82 87
e 82 98
e 82 100
e 83 94
e 83 95
e 83 100
e 84 95
e 85 94
e 86 100
e 87 91
e 89 94
e 89 95
e 92 93
e 94 96
e 94 100
e 96 97
e 97 99
